NAME : n20w20.004.401.tour
COMMENT : Length = 401
COMMENT : Found by LKH [Keld Helsgaun] Tue Nov  7 19:35:14 2017
TYPE : TOUR
DIMENSION : 21
TOUR_SECTION
1
12
4
3
20
8
16
10
9
6
7
11
15
5
13
19
17
14
21
18
2
-1
EOF
